c WARNING: for repeatability, setting FPU to use double precision
d VARIABLES            135320       
d CONSTRAINTS          572637       
c ============================[ Problem Statistics ]=============================
c |                                                                             |
c |  Number of variables:        135320                                         |
c |  Number of clauses:          572637                                         |
c |  Parse time:                   0.07 s                                       |
c |                                                                             |
c ============================[ Search Statistics ]==============================
c | Conflicts |          ORIGINAL         |          LEARNT          | Progress |
c |           |    Vars  Clauses Literals |    Limit  Clauses Lit/Cl |          |
c ===============================================================================
c |       100 |  107522   501599  1217941 |   183919       98     29 | 20.542 % |
c |       250 |  107522   501599  1217941 |   202311      248     68 | 20.542 % |
c |       475 |  107522   501449  1217581 |   222542      473     83 | 20.542 % |
c |       812 |  107522   501449  1217581 |   244797      810    107 | 20.542 % |
c |      1318 |  107522   501449  1217581 |   269276     1316    118 | 20.542 % |
c |      2077 |  107522   501449  1217581 |   296204     2075    122 | 20.542 % |
c |      3216 |  107522   501449  1217581 |   325824     3214    172 | 20.542 % |
c |      4924 |  107522   501449  1217581 |   358407     4922    172 | 20.542 % |
c |      7486 |  107522   501449  1217581 |   394248     7484    192 | 20.542 % |
c |     11330 |  107522   501449  1217581 |   433672    11328    182 | 20.542 % |
c |     17096 |  107522   501449  1217581 |   477040    17094    216 | 20.542 % |
c |     25745 |  107522   501449  1217581 |   524744    25743    212 | 20.542 % |
c |     38719 |  107522   501449  1217581 |   577218    38717    236 | 20.542 % |
c |     58180 |  107522   501449  1217581 |   634940    58178    221 | 20.542 % |
c |     87372 |  107522   501449  1217581 |   698434    87370    219 | 20.542 % |
c |    131161 |  107515   501414  1217497 |   768277   131158    251 | 20.548 % |
c |    196845 |  107515   501414  1217497 |   845105   196842    247 | 20.548 % |
c |    295371 |  107514   501409  1217485 |   929616   295367    261 | 20.548 % |
c |    443160 |  107511   501394  1217449 |  1022577   443154    270 | 20.551 % |
c |    664843 |  107511   501394  1217449 |  1124835   664837    262 | 20.551 % |
c |    997368 |  107500   501339  1217317 |  1237319   997360    258 | 20.559 % |
c |   1496156 |  107486   501269  1217149 |  1361051   266894    216 | 20.569 % |
c ===============================================================================
c restarts              : 3710
c conflicts             : 1916669        (1070 /sec)
c decisions             : 5408438        (0.00 % random) (3019 /sec)
c propagations          : 4895356401     (2733047 /sec)
c conflict literals     : 510062981      (43.65 % deleted)
d RESTARTS             3710
d FAILURES             1916669      
d NODES                5408438      
d BACKTRACKS           5408438      
d PROPAGATIONS         4895356401   
d NOGOODSIZE           266.12 
d MEMORY               1603.00 
d TIME                 1791.17 

s UNKNOWN
